
;this file is automatically generated: Sun Oct 25 10:43:48 CST 2020

;declarations generated

(declare-fun oclExcludes ( Int Int) Bool)
(declare-fun Cardinality ( Int) Int)
(declare-fun type_40a69229_9d9d_4beb_a878_576ce78a9bc0_Class5 ( Int) Bool)
(declare-fun type_40a69229_9d9d_4beb_a878_576ce78a9bc0_Class19 ( Int) Bool)
(declare-fun type_40a69229_9d9d_4beb_a878_576ce78a9bc0_Class17 ( Int) Bool)
(declare-fun type_40a69229_9d9d_4beb_a878_576ce78a9bc0_Class18 ( Int) Bool)
(declare-fun obj_1fdfdca6_48a6_4b03_8947_803e460e7c63 ( Int) Int)
(declare-fun type_40a69229_9d9d_4beb_a878_576ce78a9bc0_Class20 ( Int) Bool)
(declare-fun oclSelect ( Int Bool) Int)
(declare-fun Enum0 ( Int) Int)
(declare-fun Enum1 ( Int) Int)
(declare-fun class5_Class5BoolAttr1 ( Int) Bool)
(declare-fun class5_Class5BoolAttr0 ( Int) Bool)
(declare-fun container_ ( Int) Int)
(declare-fun oclIncludes ( Int Int) Bool)
(declare-fun ObjAt ( Int Int) Int)

;formula(s) generated
(assert (! (forall ((c1 Int)(c2 Int)) (=> (and (and (and (and (and ( type_40a69229_9d9d_4beb_a878_576ce78a9bc0_Class5 c1 )  ( type_40a69229_9d9d_4beb_a878_576ce78a9bc0_Class18 c1 ) ) ( type_40a69229_9d9d_4beb_a878_576ce78a9bc0_Class17 c1 ) ) ( type_40a69229_9d9d_4beb_a878_576ce78a9bc0_Class19 c1 ) ) ( type_40a69229_9d9d_4beb_a878_576ce78a9bc0_Class20 c1 ) ) (and (and (and (and ( type_40a69229_9d9d_4beb_a878_576ce78a9bc0_Class5 c2 )  ( type_40a69229_9d9d_4beb_a878_576ce78a9bc0_Class18 c2 ) ) ( type_40a69229_9d9d_4beb_a878_576ce78a9bc0_Class17 c2 ) ) ( type_40a69229_9d9d_4beb_a878_576ce78a9bc0_Class19 c2 ) ) ( type_40a69229_9d9d_4beb_a878_576ce78a9bc0_Class20 c2 ) )) (or ( class5_Class5BoolAttr1 ( obj_1fdfdca6_48a6_4b03_8947_803e460e7c63 c1 )  )  ( class5_Class5BoolAttr0 ( obj_1fdfdca6_48a6_4b03_8947_803e460e7c63 c2 )  ) ))):named l0))
(assert (exists ((o Int)) (and (and (and (and ( type_40a69229_9d9d_4beb_a878_576ce78a9bc0_Class5 ( obj_1fdfdca6_48a6_4b03_8947_803e460e7c63 o )  )  ( type_40a69229_9d9d_4beb_a878_576ce78a9bc0_Class18 ( obj_1fdfdca6_48a6_4b03_8947_803e460e7c63 o )  ) ) ( type_40a69229_9d9d_4beb_a878_576ce78a9bc0_Class17 ( obj_1fdfdca6_48a6_4b03_8947_803e460e7c63 o )  ) ) ( type_40a69229_9d9d_4beb_a878_576ce78a9bc0_Class19 ( obj_1fdfdca6_48a6_4b03_8947_803e460e7c63 o )  ) ) ( type_40a69229_9d9d_4beb_a878_576ce78a9bc0_Class20 ( obj_1fdfdca6_48a6_4b03_8947_803e460e7c63 o )  ) )))

 ;end of formula 